<number of tasks>
20


<number of equipment>
5


<cycle time>
1000


<investment costs>
1,25718
2,7888
3,9304
4,27706
5,26067


<task times>
1,-1,264,-1,63,85
2,87,217,-1,95,-1
3,92,246,-1,85,-1
4,-1,245,-1,92,122
5,-1,249,-1,69,165
6,-1,-1,221,-1,141
7,-1,202,-1,62,75
8,-1,-1,220,-1,108
9,71,232,-1,64,-1
10,135,242,-1,86,-1
11,-1,245,-1,65,71
12,-1,221,-1,63,69
13,-1,232,-1,87,79
14,-1,126,-1,50,66
15,56,206,-1,41,-1
16,-1,170,-1,53,71
17,-1,-1,227,-1,102
18,71,227,-1,54,-1
19,197,258,-1,95,-1
20,-1,242,-1,47,54


<precedence relations>
1,10
2,10
3,8
5,6
5,7
5,9
6,10
7,10
8,11
9,12
10,13
10,14
10,15
10,16
11,18
12,17
13,19
15,20


<task types>
1,3
2,2
3,2
4,3
5,3
6,1
7,3
8,1
9,2
10,2
11,3
12,3
13,3
14,3
15,2
16,3
17,1
18,2
19,2
20,3


<line depot>
1,0
2,3
3,3
4,1
5,0


<processing costs>
1,7200
2,14400
3,7200
4,14400
5,14400


<saving costs>
1,2571
2,788
3,930
4,2770
5,2606


<end>
